NAME: cuum290.tsp
TYPE: TSP
COMMENT: User-generated TSP file
DIMENSION: 290
EDGE_WEIGHT_TYPE: EUC_2D
NODE_COORD_SECTION
1 76.0 113.0
2 174.0 211.0
3 14.0 95.0
4 181.0 98.0
5 23.0 75.0
6 221.0 113.0
7 138.0 188.0
8 227.0 234.0
9 189.0 94.0
10 21.0 94.0
11 158.0 202.0
12 215.0 158.0
13 71.0 275.0
14 43.0 235.0
15 272.0 39.0
16 255.0 207.0
17 11.0 38.0
18 86.0 24.0
19 42.0 43.0
20 43.0 162.0
21 138.0 253.0
22 43.0 233.0
23 88.0 215.0
24 176.0 51.0
25 43.0 160.0
26 14.0 269.0
27 121.0 133.0
28 212.0 32.0
29 267.0 64.0
30 274.0 220.0
31 159.0 40.0
32 148.0 76.0
33 77.0 147.0
34 212.0 155.0
35 237.0 11.0
36 132.0 94.0
37 176.0 211.0
38 159.0 227.0
39 77.0 125.0
40 72.0 63.0
41 256.0 283.0
42 21.0 38.0
43 191.0 2.0
44 96.0 169.0
45 285.0 277.0
46 124.0 152.0
47 99.0 265.0
48 114.0 287.0
49 55.0 170.0
50 205.0 130.0
51 34.0 266.0
52 45.0 35.0
53 104.0 132.0
54 198.0 20.0
55 115.0 242.0
56 273.0 278.0
57 100.0 134.0
58 67.0 145.0
59 99.0 67.0
60 229.0 218.0
61 290.0 90.0
62 161.0 63.0
63 115.0 265.0
64 244.0 119.0
65 133.0 258.0
66 277.0 192.0
67 252.0 48.0
68 184.0 132.0
69 236.0 166.0
70 106.0 99.0
71 116.0 149.0
72 1.0 60.0
73 180.0 272.0
74 4.0 105.0
75 55.0 289.0
76 278.0 226.0
77 188.0 21.0
78 206.0 48.0
79 290.0 270.0
80 170.0 200.0
81 12.0 208.0
82 3.0 9.0
83 131.0 254.0
84 143.0 274.0
85 122.0 269.0
86 83.0 252.0
87 255.0 104.0
88 208.0 5.0
89 248.0 104.0
90 193.0 108.0
91 115.0 34.0
92 96.0 212.0
93 2.0 105.0
94 239.0 7.0
95 58.0 139.0
96 90.0 80.0
97 68.0 165.0
98 101.0 250.0
99 22.0 111.0
100 124.0 240.0
101 231.0 199.0
102 88.0 83.0
103 184.0 173.0
104 158.0 216.0
105 259.0 251.0
106 230.0 253.0
107 109.0 40.0
108 92.0 50.0
109 42.0 33.0
110 9.0 199.0
111 68.0 169.0
112 228.0 5.0
113 161.0 5.0
114 14.0 200.0
115 4.0 227.0
116 115.0 198.0
117 18.0 4.0
118 194.0 145.0
119 183.0 178.0
120 1.0 175.0
121 100.0 232.0
122 44.0 136.0
123 105.0 100.0
124 85.0 52.0
125 269.0 50.0
126 59.0 166.0
127 120.0 192.0
128 268.0 216.0
129 209.0 219.0
130 71.0 178.0
131 71.0 111.0
132 222.0 1.0
133 199.0 201.0
134 45.0 207.0
135 137.0 31.0
136 256.0 20.0
137 28.0 64.0
138 54.0 94.0
139 110.0 3.0
140 26.0 111.0
141 207.0 273.0
142 285.0 15.0
143 2.0 218.0
144 230.0 13.0
145 207.0 62.0
146 86.0 114.0
147 5.0 16.0
148 98.0 211.0
149 176.0 142.0
150 185.0 248.0
151 13.0 203.0
152 36.0 170.0
153 177.0 279.0
154 19.0 255.0
155 187.0 100.0
156 114.0 221.0
157 193.0 134.0
158 140.0 236.0
159 111.0 20.0
160 242.0 257.0
161 122.0 66.0
162 98.0 160.0
163 178.0 270.0
164 184.0 49.0
165 248.0 208.0
166 163.0 260.0
167 109.0 55.0
168 210.0 64.0
169 235.0 237.0
170 60.0 99.0
171 153.0 60.0
172 10.0 115.0
173 265.0 82.0
174 176.0 199.0
175 116.0 21.0
176 34.0 215.0
177 51.0 144.0
178 4.0 42.0
179 17.0 197.0
180 62.0 223.0
181 31.0 37.0
182 155.0 268.0
183 59.0 167.0
184 172.0 283.0
185 163.0 285.0
186 259.0 218.0
187 235.0 234.0
188 145.0 82.0
189 137.0 185.0
190 167.0 71.0
191 216.0 214.0
192 246.0 88.0
193 80.0 144.0
194 241.0 117.0
195 90.0 28.0
196 183.0 67.0
197 122.0 185.0
198 237.0 235.0
199 8.0 111.0
200 281.0 166.0
201 205.0 154.0
202 251.0 2.0
203 194.0 163.0
204 270.0 244.0
205 206.0 213.0
206 262.0 48.0
207 166.0 256.0
208 259.0 161.0
209 159.0 265.0
210 239.0 37.0
211 287.0 4.0
212 188.0 162.0
213 157.0 113.0
214 276.0 178.0
215 90.0 113.0
216 269.0 275.0
217 64.0 20.0
218 281.0 190.0
219 249.0 131.0
220 288.0 120.0
221 12.0 75.0
222 235.0 271.0
223 169.0 120.0
224 244.0 69.0
225 211.0 47.0
226 60.0 117.0
227 272.0 136.0
228 152.0 248.0
229 276.0 277.0
230 14.0 2.0
231 82.0 173.0
232 168.0 89.0
233 196.0 235.0
234 121.0 19.0
235 102.0 104.0
236 160.0 140.0
237 239.0 212.0
238 205.0 104.0
239 221.0 127.0
240 225.0 69.0
241 126.0 114.0
242 146.0 8.0
243 31.0 207.0
244 230.0 206.0
245 65.0 14.0
246 67.0 149.0
247 225.0 287.0
248 59.0 163.0
249 47.0 141.0
250 93.0 270.0
251 185.0 285.0
252 27.0 140.0
253 274.0 35.0
254 38.0 138.0
255 213.0 114.0
256 101.0 234.0
257 269.0 234.0
258 119.0 107.0
259 42.0 67.0
260 254.0 14.0
261 19.0 277.0
262 129.0 94.0
263 71.0 14.0
264 151.0 266.0
265 243.0 213.0
266 193.0 82.0
267 194.0 139.0
268 286.0 19.0
269 219.0 175.0
270 89.0 68.0
271 148.0 147.0
272 265.0 133.0
273 283.0 79.0
274 243.0 103.0
275 186.0 229.0
276 106.0 278.0
277 266.0 162.0
278 286.0 42.0
279 56.0 251.0
280 35.0 201.0
281 181.0 154.0
282 17.0 36.0
283 211.0 18.0
284 199.0 115.0
285 78.0 49.0
286 57.0 56.0
287 180.0 91.0
288 193.0 188.0
289 43.0 174.0
290 277.0 28.0
EOF





